(set-option :produce-models true)
(set-logic QF_UF)
(declare-fun p58() Bool)
(declare-fun p64() Bool)
(declare-fun p28() Bool)
(declare-fun p66() Bool)
(declare-fun p32() Bool)
(declare-fun p26() Bool)
(declare-fun p63() Bool)
(declare-fun p29() Bool)
(declare-fun p67() Bool)
(declare-fun p33() Bool)
(declare-fun p50() Bool)
(declare-fun p19() Bool)
(declare-fun p48() Bool)
(declare-fun p51() Bool)
(declare-fun p13() Bool)
(declare-fun p53() Bool)
(declare-fun p27() Bool)
(declare-fun p49() Bool)
(declare-fun p44() Bool)
(declare-fun p9() Bool)
(declare-fun p42() Bool)
(declare-fun p73() Bool)
(declare-fun p75() Bool)
(declare-fun p76() Bool)
(declare-fun p25() Bool)
(declare-fun p65() Bool)
(declare-fun p7() Bool)
(declare-fun p57() Bool)
(declare-fun p60() Bool)
(declare-fun p47() Bool)
(declare-fun p39() Bool)
(declare-fun p72() Bool)
(declare-fun p21() Bool)
(declare-fun p54() Bool)
(declare-fun p16() Bool)
(declare-fun p14() Bool)
(declare-fun p12() Bool)
(declare-fun p1() Bool)
(declare-fun p79() Bool)
(declare-fun p74() Bool)
(declare-fun p36() Bool)
(declare-fun p78() Bool)
(declare-fun p20() Bool)
(declare-fun p69() Bool)
(declare-fun p11() Bool)
(declare-fun p55() Bool)
(declare-fun p18() Bool)
(declare-fun p43() Bool)
(declare-fun p17() Bool)
(declare-fun p35() Bool)
(declare-fun p41() Bool)
(declare-fun p40() Bool)
(declare-fun p30() Bool)
(declare-fun p2() Bool)
(declare-fun p23() Bool)
(declare-fun p62() Bool)
(declare-fun p24() Bool)
(declare-fun p10() Bool)
(declare-fun p4() Bool)
(declare-fun p77() Bool)
(declare-fun p15() Bool)
(declare-fun p68() Bool)
(declare-fun p59() Bool)
(declare-fun p70() Bool)
(declare-fun p8() Bool)
(declare-fun p31() Bool)
(declare-fun p0() Bool)
(declare-fun p37() Bool)
(declare-fun p56() Bool)
(declare-fun p52() Bool)
(declare-fun p6() Bool)
(declare-fun p45() Bool)
(declare-fun p22() Bool)
(declare-fun p3() Bool)
(declare-fun p61() Bool)
(declare-fun p5() Bool)
(declare-fun p46() Bool)
(declare-fun p34() Bool)
(declare-fun p71() Bool)
(declare-fun p38() Bool)
(assert
(and (or (not p58) (not p64) p28) (or p66 p32 (not p26)) (or p63 p29 p67) (or p66 (not p33) (not p50)) (or p50 (not p19) (not p48)) (or (not p51) p13 p53) (or p66 (not p27) (not p49)) (or (not p44) (not p9) p67) (or p42 (not p73) p75) (or (not p76) (not p25) p65) (or p7 p57 p13) (or (not p29) (not p60) (not p47)) (or (not p39) p72 p21) (or p48 p42 p54) (or (not p16) p14 p12) (or (not p1) (not p79) p74) (or (not p63) (not p75) p76) (or (not p25) (not p36) p57) (or p78 (not p12) (not p48)) (or p20 p69 p11) (or (not p55) (not p18) (not p60)) (or p60 (not p13) (not p55)) (or (not p43) (not p76) p25) (or p17 (not p67) (not p39)) (or (not p35) (not p78) (not p66)) (or p14 p41 (not p40)) (or (not p41) (not p44) (not p47)) (or p30 (not p43) p40) (or p16 p2 p23) (or (not p62) p58 (not p21)) (or (not p17) p14 (not p36)) (or p1 p12 (not p28)) (or p20 (not p76) p32) (or p24 p26 (not p63)) (or (not p16) p35 p64) (or (not p48) p10 p4) (or p77 (not p58) p58) (or (not p75) p15 (not p54)) (or (not p68) (not p29) p30) (or p64 p24 (not p19)) (or (not p62) (not p33) (not p74)) (or p16 p50 (not p10)) (or p11 (not p75) (not p59)) (or p69 p70 (not p8)) (or (not p31) p0 (not p59)) (or p64 (not p68) p9) (or p20 p69 (not p37)) (or (not p9) p64 (not p17)) (or (not p68) p26 (not p74)) (or p56 p39 p78) (or p54 (not p79) (not p25)) (or (not p20) p12 p20) (or p70 (not p42) p52) (or p67 (not p78) (not p42)) (or (not p69) (not p67) p79) (or p63 p55 p20) (or p7 p40 (not p8)) (or p44 p57 (not p26)) (or (not p77) (not p31) (not p56)) (or p29 p53 (not p69)) (or (not p23) p49 (not p63)) (or (not p6) (not p56) (not p45)) (or p14 p22 (not p63)) (or (not p64) (not p27) p53) (or (not p60) (not p77) p63) (or p3 (not p17) (not p40)) (or (not p79) p59 p52) (or p44 p19 (not p64)) (or p70 p17 (not p23)) (or (not p21) p73 (not p47)) (or (not p22) p32 (not p12)) (or (not p67) p51 (not p70)) (or (not p41) (not p28) p61) (or (not p12) (not p4) (not p25)) (or p13 p5 (not p46)) (or (not p70) p2 (not p68)) (or (not p44) p6 (not p28)) (or (not p68) (not p18) (not p24)) (or p8 (not p20) p48) (or p27 (not p79) p69) (or p39 (not p76) p66) (or (not p1) p63 (not p44)) (or p26 (not p2) (not p7)) (or (not p40) (not p40) p60) (or (not p18) (not p31) p62) (or p50 (not p29) (not p76)) (or (not p31) p72 (not p53)) (or p66 p12 (not p40)) (or p32 p20 p30) (or (not p8) p25 p41) (or p75 p56 p68) (or p11 p70 p76) (or p34 p78 p79) (or p10 p79 (not p6)) (or (not p57) (not p3) (not p40)) (or p48 (not p62) p16) (or p32 (not p31) p22) (or (not p30) p4 p15) (or (not p24) p15 (not p43)) (or (not p67) (not p37) (not p0)) (or p27 p36 p51) (or (not p13) p39 p12) (or (not p39) (not p31) (not p73)) (or p50 p21 (not p72)) (or p23 (not p23) (not p46)) (or p26 (not p12) (not p42)) (or p40 p19 (not p50)) (or p28 (not p59) p0) (or p12 p8 p3) (or p73 (not p62) p63) (or (not p25) p55 p39) (or p36 (not p42) (not p19)) (or p19 (not p76) (not p15)) (or (not p65) p39 p31) (or p71 (not p48) p38) (or (not p28) p4 (not p47)) (or p70 p31 p36) (or (not p6) p6 (not p8)) (or (not p53) p56 (not p39)) (or p24 (not p15) (not p17)) (or (not p57) (not p29) (not p49)) (or (not p61) (not p20) p63) (or p65 p67 (not p0)) (or (not p36) p26 (not p72)) (or (not p29) p51 (not p51)) (or p52 (not p75) (not p44)) (or p63 (not p51) (not p77)) (or (not p76) (not p51) p43) (or (not p60) p61 p65) (or p37 p45 p17) (or (not p70) p29 p32) (or (not p0) p78 (not p0)) (or p22 (not p0) (not p27)) (or p47 (not p70) (not p74)) (or p1 (not p71) (not p15)) (or p25 p12 (not p51)) (or p50 (not p30) (not p75)) (or p9 (not p6) p24) (or (not p55) (not p18) p68) (or p19 (not p61) (not p56)) (or p25 (not p64) (not p75)) (or (not p27) (not p37) p72) (or (not p51) p42 p72) (or p15 (not p59) p38) (or p21 (not p7) p62) (or p67 p12 (not p67)) (or p23 (not p21) p48) (or p60 (not p13) (not p57)) (or p15 p21 p52) (or (not p25) (not p69) p10) (or (not p66) (not p64) p17) (or p59 (not p45) p42) (or (not p46) p16 p45) (or (not p8) p39 (not p57)) (or (not p42) p60 p55) (or p20 p30 (not p38)) (or p4 p46 p24) (or (not p33) p25 p28) (or (not p28) (not p32) p40) (or p65 p21 p65) (or p10 (not p19) (not p59)) (or p53 p41 (not p42)) (or (not p23) (not p65) p47) (or p14 p26 (not p46)) (or p68 p15 (not p10)) (or p70 p48 (not p20)) (or p32 (not p36) (not p12)) (or p67 (not p51) p36) (or (not p40) p28 p13) (or p19 (not p13) p17) (or (not p56) p45 p32) (or (not p23) p5 (not p39)) (or p0 (not p76) p19) (or (not p22) p68 (not p49)) (or (not p17) p24 p45) (or (not p41) (not p64) (not p10)) (or (not p72) (not p8) p11) (or p19 p41 (not p36)) (or (not p39) (not p13) (not p4)) (or p52 p46 p53) (or p41 (not p13) p9) (or p56 p22 (not p15)) (or (not p51) p9 (not p15)) (or p23 p16 (not p47)) (or p43 p72 (not p62)) (or (not p51) p77 (not p3)) (or p50 (not p48) p6) (or (not p40) p61 (not p66)) (or (not p66) p10 p72) (or (not p61) (not p68) p49) (or p27 p23 p71) (or (not p75) p63 (not p78)) (or (not p40) (not p62) p50) (or (not p9) (not p19) (not p37)) (or p6 (not p21) (not p69)) (or (not p12) p4 (not p52)) (or p49 p46 p77) (or (not p0) p35 (not p6)) (or p17 p2 (not p75)) (or (not p61) (not p5) (not p56)) (or p36 p45 (not p3)) (or (not p68) p62 (not p63)) (or p70 p48 (not p33)) (or (not p52) (not p63) p42) (or (not p13) p7 p4) (or (not p38) (not p38) (not p54)) (or (not p16) p15 (not p52)) (or (not p46) (not p19) p11) (or (not p56) p28 (not p50)) (or (not p62) (not p12) (not p46)) (or p52 (not p21) p28) (or (not p17) (not p4) (not p0)) (or p15 (not p51) (not p16)) (or p79 (not p37) p50) (or p67 p18 p61) (or (not p73) (not p53) (not p76)) (or (not p13) p66 p0) (or (not p61) p52 p25) (or (not p37) p10 p57) (or (not p26) p67 p39) (or p20 p66 p18) (or (not p52) (not p71) p40) (or p56 p19 (not p68)) (or p70 (not p62) (not p30)) (or p17 (not p10) (not p48)) (or (not p45) (not p40) (not p48)) (or (not p15) p55 (not p46)) (or (not p51) p24 (not p30)) (or p40 (not p25) p46) (or (not p71) (not p74) p29) (or p15 (not p13) (not p7)) (or p66 p79 (not p74)) (or (not p2) p62 (not p24)) (or p56 (not p52) p64) (or (not p13) p72 (not p52)) (or (not p23) p5 (not p29)) (or (not p43) p76 (not p44)) (or (not p71) (not p54) p34) (or (not p59) (not p9) p71) (or p25 (not p1) (not p21)) (or p1 (not p46) (not p63)) (or p64 p14 (not p61)) (or (not p56) (not p72) (not p20)) (or p46 p26 p69) (or p47 p18 p20) (or p26 p31 p16) (or p46 p21 p24) (or p29 (not p39) p30) (or p63 (not p73) p14) (or p16 (not p6) p70) (or (not p46) (not p22) p42) (or (not p40) p45 (not p50)) (or (not p38) p4 (not p31)) (or (not p17) (not p48) p76) (or p64 p50 (not p61)) (or p13 p46 p13) (or p34 (not p66) p50) (or (not p62) (not p4) (not p54)) (or (not p14) (not p50) p5) (or p48 (not p19) p10) (or p23 (not p45) p11) (or (not p41) (not p33) p36) (or (not p39) (not p0) (not p46)) (or p32 p46 (not p22)) (or p31 (not p59) (not p71)) (or p44 p61 p78) (or p41 (not p48) p68) (or p11 (not p53) (not p43)) (or (not p72) p57 p54) (or p21 p35 (not p65)) (or p31 p67 (not p20)) (or p39 p23 (not p52)) (or p63 p43 p29) (or (not p19) p46 p12) (or p1 p66 (not p25)) (or (not p71) p44 p33) (or p67 p24 p1) (or p21 p63 p68) (or p50 p48 p74) (or (not p31) (not p4) (not p47)) (or p29 (not p42) (not p5)) (or (not p40) (not p47) p8) (or p43 p17 p8) (or (not p29) (not p23) p31) (or (not p36) p75 p77) (or (not p2) p11 (not p58)) (or p46 p78 p60) (or p45 (not p12) (not p8)) (or (not p21) p66 p4) (or (not p56) p66 (not p50)) (or p79 p3 p55) (or (not p48) p48 (not p65)) (or p24 p4 p79) (or p16 (not p53) (not p56)) (or (not p21) (not p40) p75) (or (not p49) p76 (not p56)) (or (not p70) (not p15) p45) (or p12 p35 (not p70)) (or p22 (not p68) p62) (or (not p76) p43 (not p1)) (or p30 (not p73) p15) (or p11 p6 (not p64)) (or p39 (not p72) (not p6)) (or (not p4) p31 (not p69)) (or (not p79) (not p79) (not p57)) (or p37 p54 (not p41)) (or p25 (not p64) (not p70)) (or (not p72) p23 (not p48)) (or (not p40) p32 (not p51)) (or p76 p33 (not p42)) (or p8 (not p45) (not p64)) (or p58 (not p55) p29) (or p52 (not p49) (not p33)) (or (not p49) (not p76) (not p42)) (or p7 p5 p61) (or p37 p43 p9) (or (not p57) (not p67) (not p71)) (or (not p34) (not p66) p13) (or (not p31) p20 (not p47)) (or (not p17) (not p2) (not p57)) (or (not p56) (not p7) (not p33)) (or (not p38) (not p63) (not p34)) (or p30 p53 (not p15)) (or p77 p11 p66) (or (not p40) p76 (not p23)) (or p73 (not p0) p4) (or (not p20) p1 p10) (or (not p49) (not p54) p28) (or (not p35) p71 p70) (or p2 p34 p20) (or (not p32) p16 (not p45)) (or (not p22) (not p18) p43) (or p74 (not p8) (not p1)) (or (not p55) (not p28) (not p58)) (or p64 p70 p8) (or p59 (not p54) (not p66)) (or p44 (not p4) (not p31)))
)
(check-sat)
(get-model)
